136
1000000
20031
248859
119650
66646
32721
145541
5669
26361
9507
226697
208119
161654
173262
131448
108453
203321
115258
162920
112420
156053
39379
60687
116391
184
200978
132862
93416
197955
4396
180761
212180
91139
85459
6349
64810
213505
22011
27341
206285
199064
131593
73380
2921
246059
117096
84758
214283
190702
180908
182331
10268
167646
25501
89932
117007
101347
9348
138273
84878
134922
192728
25985
62445
115417
70845
249661
11637
6726
11423
185559
17103
213466
11774
196087
132224
99807
106289
105549
130567
202822
113029
20208
70491
233104
28279
37931
4537
126644
145586
224710
16617
60921
12628
178700
70793
141170
40587
22460
210311
26764
47925
1054
176974
203863
40618
27686
249491
61933
87700
203707
106535
139159
94281
137904
227979
237261
198564
51277
62910
44271
185764
153808
12299
65041
132827
47182
94923
232520
91938
25647
183899
247275
59572
161175
45685
32874
